NAME 
ROWS
 N  OBJ
 L  R0      
 E  R1      
 E  R2      
 E  R3      
 E  R4      
 E  R5      
 E  R6      
 E  R7      
 E  R8      
 E  R9      
 E  R10     
 E  R11     
 E  R12     
 E  R13     
 E  R14     
 E  R15     
 E  R16     
 E  R17     
 E  R18     
 E  R19     
 E  R20     
 E  R21     
 E  R22     
 E  R23     
 E  R24     
 E  R25     
COLUMNS
    MARKER    'MARKER'                 'INTORG'
    I0(16)    OBJ       -13
    I0(16)    R0        -181
    I0(16)    R1        10
    I0(16)    R2        12
    I0(16)    R3        19
    I0(16)    R5        10
    I0(16)    R6        6
    I0(16)    R7        3
    I0(16)    R8        5
    I0(16)    R9        17
    I0(16)    R10       3
    I0(16)    R11       6
    I0(16)    R12       16
    I0(16)    R13       15
    I0(16)    R14       19
    I0(16)    R15       4
    I0(16)    R25       1
    I1(14)    OBJ       102
    I1(14)    R0        11
    I1(14)    R2        7
    I1(14)    R3        17
    I1(14)    R4        12
    I1(14)    R5        13
    I1(14)    R6        17
    I1(14)    R7        10
    I1(14)    R10       17
    I1(14)    R11       9
    I1(14)    R12       1
    I1(14)    R13       19
    I1(14)    R14       19
    I1(14)    R15       5
    I1(14)    R25       1
    I2(14)    OBJ       -191
    I2(14)    R0        -124
    I2(14)    R1        11
    I2(14)    R2        -1
    I2(14)    R3        7
    I2(14)    R4        17
    I2(14)    R5        -1
    I2(14)    R6        4
    I2(14)    R7        13
    I2(14)    R8        18
    I2(14)    R10       16
    I2(14)    R11       3
    I2(14)    R12       18
    I2(14)    R14       16
    I2(14)    R25       1
    I3(15)    OBJ       16
    I3(15)    R0        -106
    I3(15)    R1        11
    I3(15)    R2        12
    I3(15)    R3        14
    I3(15)    R4        12
    I3(15)    R5        15
    I3(15)    R7        19
    I3(15)    R8        3
    I3(15)    R9        12
    I3(15)    R11       17
    I3(15)    R12       9
    I3(15)    R13       -1
    I3(15)    R14       13
    I3(15)    R15       7
    I3(15)    R25       1
    I4(12)    OBJ       192
    I4(12)    R0        19
    I4(12)    R1        1
    I4(12)    R3        8
    I4(12)    R4        5
    I4(12)    R5        4
    I4(12)    R6        8
    I4(12)    R7        18
    I4(12)    R9        15
    I4(12)    R10       5
    I4(12)    R13       14
    I4(12)    R14       4
    I4(12)    R25       1
    I5(12)    OBJ       101
    I5(12)    R0        60
    I5(12)    R1        15
    I5(12)    R2        17
    I5(12)    R3        13
    I5(12)    R5        17
    I5(12)    R6        13
    I5(12)    R10       -1
    I5(12)    R11       4
    I5(12)    R13       18
    I5(12)    R14       -1
    I5(12)    R15       7
    I5(12)    R25       1
    I6(13)    OBJ       -107
    I6(13)    R0        -65
    I6(13)    R3        5
    I6(13)    R4        3
    I6(13)    R6        11
    I6(13)    R8        12
    I6(13)    R9        7
    I6(13)    R10       5
    I6(13)    R11       2
    I6(13)    R12       16
    I6(13)    R13       2
    I6(13)    R14       2
    I6(13)    R15       12
    I6(13)    R25       1
    I7(16)    OBJ       75
    I7(16)    R0        -125
    I7(16)    R1        16
    I7(16)    R3        1
    I7(16)    R4        15
    I7(16)    R5        9
    I7(16)    R6        17
    I7(16)    R7        8
    I7(16)    R8        8
    I7(16)    R9        17
    I7(16)    R10       15
    I7(16)    R11       9
    I7(16)    R12       4
    I7(16)    R13       5
    I7(16)    R14       9
    I7(16)    R15       11
    I7(16)    R25       1
    I8(14)    OBJ       -97
    I8(14)    R0        18
    I8(14)    R1        19
    I8(14)    R2        16
    I8(14)    R3        4
    I8(14)    R4        4
    I8(14)    R5        18
    I8(14)    R6        18
    I8(14)    R8        1
    I8(14)    R9        8
    I8(14)    R10       -1
    I8(14)    R11       13
    I8(14)    R14       11
    I8(14)    R15       14
    I8(14)    R25       1
    I9(14)    OBJ       86
    I9(14)    R0        -28
    I9(14)    R1        11
    I9(14)    R2        5
    I9(14)    R3        7
    I9(14)    R4        11
    I9(14)    R6        12
    I9(14)    R7        10
    I9(14)    R9        14
    I9(14)    R10       19
    I9(14)    R12       2
    I9(14)    R13       7
    I9(14)    R14       13
    I9(14)    R15       2
    I9(14)    R25       1
    I10(12)   OBJ       166
    I10(12)   R0        101
    I10(12)   R2        11
    I10(12)   R3        4
    I10(12)   R4        14
    I10(12)   R6        2
    I10(12)   R9        7
    I10(12)   R10       4
    I10(12)   R11       12
    I10(12)   R12       6
    I10(12)   R14       19
    I10(12)   R15       10
    I10(12)   R25       1
    I11(10)   OBJ       111
    I11(10)   R0        -75
    I11(10)   R2        12
    I11(10)   R3        15
    I11(10)   R8        17
    I11(10)   R9        12
    I11(10)   R11       14
    I11(10)   R13       15
    I11(10)   R14       9
    I11(10)   R15       11
    I11(10)   R25       1
    I12(11)   OBJ       72
    I12(11)   R0        -105
    I12(11)   R2        4
    I12(11)   R3        17
    I12(11)   R5        16
    I12(11)   R6        6
    I12(11)   R8        12
    I12(11)   R9        19
    I12(11)   R10       16
    I12(11)   R12       8
    I12(11)   R14       2
    I12(11)   R25       1
    I13(13)   OBJ       89
    I13(13)   R0        13
    I13(13)   R1        19
    I13(13)   R2        12
    I13(13)   R3        12
    I13(13)   R4        19
    I13(13)   R5        8
    I13(13)   R7        15
    I13(13)   R9        8
    I13(13)   R11       13
    I13(13)   R12       1
    I13(13)   R13       10
    I13(13)   R14       13
    I13(13)   R25       1
    I14(14)   OBJ       -145
    I14(14)   R0        -71
    I14(14)   R1        4
    I14(14)   R3        9
    I14(14)   R4        9
    I14(14)   R5        15
    I14(14)   R6        13
    I14(14)   R7        1
    I14(14)   R10       15
    I14(14)   R11       16
    I14(14)   R12       14
    I14(14)   R13       17
    I14(14)   R14       2
    I14(14)   R15       19
    I14(14)   R25       1
    MARKER    'MARKER'                 'INTEND'
    C15(21)   OBJ       4
    C15(21)   R0        -9
    C15(21)   R2        19
    C15(21)   R3        17
    C15(21)   R4        16
    C15(21)   R5        4
    C15(21)   R6        11
    C15(21)   R7        10
    C15(21)   R8        8
    C15(21)   R9        15
    C15(21)   R11       12
    C15(21)   R12       5
    C15(21)   R13       8
    C15(21)   R15       15
    C15(21)   R16       12
    C15(21)   R17       19
    C15(21)   R19       14
    C15(21)   R20       12
    C15(21)   R21       16
    C15(21)   R22       11
    C15(21)   R23       2
    C15(21)   R24       13
    C16(20)   OBJ       4
    C16(20)   R0        4
    C16(20)   R2        17
    C16(20)   R3        1
    C16(20)   R4        19
    C16(20)   R5        14
    C16(20)   R7        19
    C16(20)   R8        13
    C16(20)   R9        1
    C16(20)   R10       2
    C16(20)   R11       8
    C16(20)   R12       12
    C16(20)   R13       11
    C16(20)   R14       18
    C16(20)   R15       16
    C16(20)   R16       4
    C16(20)   R18       12
    C16(20)   R19       8
    C16(20)   R21       16
    C16(20)   R22       6
    C16(20)   R24       15
    C17(18)   OBJ       4
    C17(18)   R0        1
    C17(18)   R1        -1
    C17(18)   R2        14
    C17(18)   R3        12
    C17(18)   R4        18
    C17(18)   R5        8
    C17(18)   R7        -1
    C17(18)   R8        15
    C17(18)   R10       2
    C17(18)   R12       8
    C17(18)   R14       17
    C17(18)   R15       10
    C17(18)   R16       13
    C17(18)   R18       3
    C17(18)   R20       5
    C17(18)   R21       9
    C17(18)   R23       15
    C17(18)   R24       14
    C18(21)   OBJ       -6
    C18(21)   R0        2
    C18(21)   R1        5
    C18(21)   R2        15
    C18(21)   R4        19
    C18(21)   R5        8
    C18(21)   R6        15
    C18(21)   R7        14
    C18(21)   R9        5
    C18(21)   R10       15
    C18(21)   R11       -1
    C18(21)   R12       7
    C18(21)   R13       2
    C18(21)   R14       11
    C18(21)   R15       13
    C18(21)   R16       17
    C18(21)   R18       11
    C18(21)   R19       10
    C18(21)   R20       15
    C18(21)   R21       12
    C18(21)   R22       1
    C18(21)   R23       11
    C19(19)   OBJ       -5
    C19(19)   R0        -5
    C19(19)   R1        2
    C19(19)   R2        9
    C19(19)   R3        2
    C19(19)   R7        6
    C19(19)   R8        19
    C19(19)   R9        10
    C19(19)   R11       1
    C19(19)   R13       15
    C19(19)   R14       6
    C19(19)   R15       10
    C19(19)   R17       17
    C19(19)   R18       8
    C19(19)   R19       6
    C19(19)   R20       8
    C19(19)   R21       14
    C19(19)   R22       3
    C19(19)   R23       19
    C19(19)   R24       4
    C20(15)   OBJ       -2
    C20(15)   R0        2
    C20(15)   R1        8
    C20(15)   R2        11
    C20(15)   R3        6
    C20(15)   R7        4
    C20(15)   R11       18
    C20(15)   R12       18
    C20(15)   R14       14
    C20(15)   R15       7
    C20(15)   R16       5
    C20(15)   R17       15
    C20(15)   R18       13
    C20(15)   R19       16
    C20(15)   R20       13
    C20(15)   R24       10
    C21(23)   OBJ       -10
    C21(23)   R0        -2
    C21(23)   R1        4
    C21(23)   R2        3
    C21(23)   R3        4
    C21(23)   R4        18
    C21(23)   R5        4
    C21(23)   R6        13
    C21(23)   R7        19
    C21(23)   R9        2
    C21(23)   R10       15
    C21(23)   R11       19
    C21(23)   R13       8
    C21(23)   R14       9
    C21(23)   R15       19
    C21(23)   R16       9
    C21(23)   R17       5
    C21(23)   R18       -1
    C21(23)   R19       -1
    C21(23)   R20       9
    C21(23)   R21       1
    C21(23)   R22       6
    C21(23)   R23       7
    C21(23)   R24       8
    C22(21)   OBJ       9
    C22(21)   R0        8
    C22(21)   R2        5
    C22(21)   R3        14
    C22(21)   R4        3
    C22(21)   R5        2
    C22(21)   R6        2
    C22(21)   R7        11
    C22(21)   R8        -1
    C22(21)   R9        12
    C22(21)   R10       18
    C22(21)   R11       2
    C22(21)   R12       2
    C22(21)   R13       9
    C22(21)   R14       3
    C22(21)   R16       1
    C22(21)   R17       14
    C22(21)   R18       8
    C22(21)   R19       15
    C22(21)   R20       9
    C22(21)   R21       17
    C22(21)   R22       12
    C23(20)   OBJ       7
    C23(20)   R0        7
    C23(20)   R1        12
    C23(20)   R3        16
    C23(20)   R4        2
    C23(20)   R6        5
    C23(20)   R7        2
    C23(20)   R8        19
    C23(20)   R9        4
    C23(20)   R10       13
    C23(20)   R11       9
    C23(20)   R12       17
    C23(20)   R13       13
    C23(20)   R14       18
    C23(20)   R16       7
    C23(20)   R17       4
    C23(20)   R19       -1
    C23(20)   R20       -1
    C23(20)   R21       17
    C23(20)   R23       13
    C23(20)   R24       10
    C24(22)   OBJ       9
    C24(22)   R0        1
    C24(22)   R1        9
    C24(22)   R2        5
    C24(22)   R3        14
    C24(22)   R4        19
    C24(22)   R5        13
    C24(22)   R6        8
    C24(22)   R7        7
    C24(22)   R8        -1
    C24(22)   R9        13
    C24(22)   R10       1
    C24(22)   R11       17
    C24(22)   R12       7
    C24(22)   R13       14
    C24(22)   R14       3
    C24(22)   R15       15
    C24(22)   R16       5
    C24(22)   R18       4
    C24(22)   R19       3
    C24(22)   R20       19
    C24(22)   R22       10
    C24(22)   R24       14
    C25(1)    R1        1
    C26(1)    R2        1
    C27(1)    R3        1
    C28(1)    R4        1
    C29(1)    R5        1
    C30(1)    R6        1
    C31(1)    R7        1
    C32(1)    R8        1
    C33(1)    R9        1
    C34(1)    R10       1
    C35(1)    R11       1
    C36(1)    R12       1
    C37(1)    R13       1
    C38(1)    R14       1
    C39(1)    R15       1
    C40(1)    R16       1
    C41(1)    R17       1
    C42(1)    R18       1
    C43(1)    R19       1
    C44(1)    R20       1
    C45(1)    R21       1
    C46(1)    R22       1
    C47(1)    R23       1
    C48(1)    R24       1
    C49(1)    R25       1
RHS
    RHS1      R0        -3.7683333333333331e+02
    RHS1      R1        52
    RHS1      R2        94
    RHS1      R3        77
    RHS1      R4        93
    RHS1      R5        58
    RHS1      R6        80
    RHS1      R7        76
    RHS1      R8        54
    RHS1      R9        78
    RHS1      R10       84
    RHS1      R11       91
    RHS1      R12       78
    RHS1      R13       82
    RHS1      R14       55
    RHS1      R15       80
    RHS1      R16       77
    RHS1      R17       78
    RHS1      R18       66
    RHS1      R19       81
    RHS1      R20       93
    RHS1      R21       65
    RHS1      R22       99
    RHS1      R23       74
    RHS1      R24       84
    RHS1      R25       5
BOUNDS
 UP BND1      I0(16)    2
 UP BND1      I1(14)    2
 UP BND1      I2(14)    2
 UP BND1      I3(15)    2
 UP BND1      I4(12)    2
 UP BND1      I5(12)    2
 UP BND1      I6(13)    2
 UP BND1      I7(16)    2
 UP BND1      I8(14)    2
 UP BND1      I9(14)    2
 UP BND1      I10(12)   2
 UP BND1      I11(10)   2
 UP BND1      I12(11)   2
 UP BND1      I13(13)   2
 UP BND1      I14(14)   2
ENDATA
